solution status: optimal solution found
objective value:                     150540.710178217
d11(0,0)                                            1 	(obj:0)
d11(1,1)                                            1 	(obj:0)
d11(2,4)                                            1 	(obj:0)
d11(2,7)                                            1 	(obj:0)
d11(2,10)                                           1 	(obj:0)
d11(3,13)                                           1 	(obj:0)
d11(3,16)                                           1 	(obj:0)
d11(3,17)                                           1 	(obj:0)
d11(3,19)                                           1 	(obj:0)
d11(3,20)                                           1 	(obj:0)
d11(3,22)                                           1 	(obj:0)
d11(3,23)                                           1 	(obj:0)
d11(3,25)                                           1 	(obj:0)
d11(3,26)                                           1 	(obj:0)
d11(3,28)                                           1 	(obj:0)
d11(3,29)                                           1 	(obj:0)
d11(3,31)                                           1 	(obj:0)
d11(3,32)                                           1 	(obj:0)
d11(3,34)                                           1 	(obj:0)
d11(3,35)                                           1 	(obj:0)
d11(3,37)                                           1 	(obj:0)
d11(3,38)                                           1 	(obj:0)
d11(4,40)                                           1 	(obj:0)
d11(4,41)                                           1 	(obj:0)
d11(4,42)                                           1 	(obj:0)
d11(4,43)                                           1 	(obj:0)
d11(4,44)                                           1 	(obj:0)
d11(4,45)                                           1 	(obj:0)
d11(4,46)                                           1 	(obj:0)
d11(4,47)                                           1 	(obj:0)
d11(4,48)                                           1 	(obj:0)
d11(4,49)                                           1 	(obj:0)
d11(4,50)                                           1 	(obj:0)
d11(4,51)                                           1 	(obj:0)
d11(4,52)                                           1 	(obj:0)
d11(4,53)                                           1 	(obj:0)
d11(4,54)                                           1 	(obj:0)
d11(4,55)                                           1 	(obj:0)
d11(4,56)                                           1 	(obj:0)
d11(4,57)                                           1 	(obj:0)
d11(4,58)                                           1 	(obj:0)
d11(4,59)                                           1 	(obj:0)
d11(4,60)                                           1 	(obj:0)
d11(4,61)                                           1 	(obj:0)
d11(4,62)                                           1 	(obj:0)
d11(4,63)                                           1 	(obj:0)
d11(4,64)                                           1 	(obj:0)
d11(4,65)                                           1 	(obj:0)
d11(4,66)                                           1 	(obj:0)
d11(4,67)                                           1 	(obj:0)
d11(4,68)                                           1 	(obj:0)
d11(4,69)                                           1 	(obj:0)
d11(4,70)                                           1 	(obj:0)
d11(4,71)                                           1 	(obj:0)
d11(4,72)                                           1 	(obj:0)
d11(4,73)                                           1 	(obj:0)
d11(4,74)                                           1 	(obj:0)
d11(4,75)                                           1 	(obj:0)
d11(4,76)                                           1 	(obj:0)
d11(4,77)                                           1 	(obj:0)
d11(4,78)                                           1 	(obj:0)
d11(4,79)                                           1 	(obj:0)
d11(4,80)                                           1 	(obj:0)
d11(4,81)                                           1 	(obj:0)
d11(4,82)                                           1 	(obj:0)
d11(4,83)                                           1 	(obj:0)
d11(4,84)                                           1 	(obj:0)
d11(4,85)                                           1 	(obj:0)
d11(4,86)                                           1 	(obj:0)
d11(4,87)                                           1 	(obj:0)
d11(4,88)                                           1 	(obj:0)
d11(4,89)                                           1 	(obj:0)
d11(4,90)                                           1 	(obj:0)
d11(4,91)                                           1 	(obj:0)
d11(4,92)                                           1 	(obj:0)
d11(4,93)                                           1 	(obj:0)
d11(4,94)                                           1 	(obj:0)
d11(4,95)                                           1 	(obj:0)
d11(4,96)                                           1 	(obj:0)
d11(4,97)                                           1 	(obj:0)
d11(4,98)                                           1 	(obj:0)
d11(4,99)                                           1 	(obj:0)
d11(4,100)                                          1 	(obj:0)
d11(4,101)                                          1 	(obj:0)
d11(4,102)                                          1 	(obj:0)
d11(4,103)                                          1 	(obj:0)
d11(4,104)                                          1 	(obj:0)
d11(4,105)                                          1 	(obj:0)
d11(4,106)                                          1 	(obj:0)
d11(4,107)                                          1 	(obj:0)
d11(4,108)                                          1 	(obj:0)
d11(4,109)                                          1 	(obj:0)
d11(4,110)                                          1 	(obj:0)
d11(4,111)                                          1 	(obj:0)
d11(4,112)                                          1 	(obj:0)
d11(4,113)                                          1 	(obj:0)
d11(4,114)                                          1 	(obj:0)
d11(4,115)                                          1 	(obj:0)
d11(4,116)                                          1 	(obj:0)
d11(4,117)                                          1 	(obj:0)
d11(4,118)                                          1 	(obj:0)
d11(4,119)                                          1 	(obj:0)
d11(4,120)                                          1 	(obj:0)
d12(1,3)                                            1 	(obj:0)
d12(2,6)                                            1 	(obj:0)
d12(2,9)                                            1 	(obj:0)
d12(2,12)                                           1 	(obj:0)
d12(3,15)                                           1 	(obj:0)
d12(3,18)                                           1 	(obj:0)
d12(3,21)                                           1 	(obj:0)
d12(3,24)                                           1 	(obj:0)
d12(3,27)                                           1 	(obj:0)
d12(3,30)                                           1 	(obj:0)
d12(3,33)                                           1 	(obj:0)
d12(3,36)                                           1 	(obj:0)
d12(3,39)                                           1 	(obj:0)
d21(3,13)                                           1 	(obj:0)
d21(4,40)                                           1 	(obj:0)
d21(4,41)                                           1 	(obj:0)
d21(4,42)                                           1 	(obj:0)
d21(4,43)                                           1 	(obj:0)
d21(4,44)                                           1 	(obj:0)
d21(4,45)                                           1 	(obj:0)
d21(4,46)                                           1 	(obj:0)
d21(4,47)                                           1 	(obj:0)
d21(4,49)                                           1 	(obj:0)
d21(4,50)                                           1 	(obj:0)
d21(4,51)                                           1 	(obj:0)
d21(4,52)                                           1 	(obj:0)
d21(4,53)                                           1 	(obj:0)
d21(4,55)                                           1 	(obj:0)
d21(4,58)                                           1 	(obj:0)
d21(4,59)                                           1 	(obj:0)
d21(4,61)                                           1 	(obj:0)
d21(4,64)                                           1 	(obj:0)
d21(4,67)                                           1 	(obj:0)
d21(4,68)                                           1 	(obj:0)
d21(4,69)                                           1 	(obj:0)
d21(4,70)                                           1 	(obj:0)
d21(4,71)                                           1 	(obj:0)
d21(4,73)                                           1 	(obj:0)
d21(4,76)                                           1 	(obj:0)
d21(4,77)                                           1 	(obj:0)
d21(4,79)                                           1 	(obj:0)
d21(4,85)                                           1 	(obj:0)
d21(4,94)                                           1 	(obj:0)
d21(4,95)                                           1 	(obj:0)
d21(4,97)                                           1 	(obj:0)
d21(4,98)                                           1 	(obj:0)
d21(4,100)                                          1 	(obj:0)
d21(4,103)                                          1 	(obj:0)
d21(4,104)                                          1 	(obj:0)
d21(4,112)                                          1 	(obj:0)
STE(1,1)                             4799.23399666662 	(obj:0)
STE(0,0)                                         6300 	(obj:0)
STE(1,2)                                         5796 	(obj:0)
STE(1,3)                             6708.56333384996 	(obj:0)
STE(2,4)                             3298.46799333327 	(obj:0)
STE(2,5)                             4295.23399666662 	(obj:0)
STE(2,6)                             5207.79733051661 	(obj:0)
STE(2,7)                             4295.23399666665 	(obj:0)
STE(2,8)                                         5292 	(obj:0)
STE(2,9)                             6204.56333384999 	(obj:0)
STE(2,10)                            5207.79733051661 	(obj:0)
STE(2,11)                            6204.56333384996 	(obj:0)
STE(2,12)                            7117.12666769995 	(obj:0)
STE(3,13)                            1797.70198999992 	(obj:0)
STE(3,14)                            2794.46799333327 	(obj:0)
STE(3,15)                            3707.03132718326 	(obj:0)
STE(3,16)                            2794.46799333327 	(obj:0)
STE(3,17)                            3791.23399666662 	(obj:0)
STE(3,18)                            4703.79733051661 	(obj:0)
STE(3,19)                            3707.03132718326 	(obj:0)
STE(3,20)                            4703.79733051654 	(obj:0)
STE(3,21)                            5616.36066436659 	(obj:0)
STE(3,22)                            2794.46799333341 	(obj:0)
STE(3,23)                            3791.23399666659 	(obj:0)
STE(3,24)                            4703.79733051664 	(obj:0)
STE(3,25)                             3791.2339966667 	(obj:0)
STE(3,26)                                        4788 	(obj:0)
STE(3,27)                            5700.56333384999 	(obj:0)
STE(3,28)                            4703.79733051666 	(obj:0)
STE(3,29)                            5700.56333384999 	(obj:0)
STE(3,30)                            6613.12666769997 	(obj:0)
STE(3,31)                            3707.03132718338 	(obj:0)
STE(3,32)                            4703.79733051655 	(obj:0)
STE(3,33)                             5616.3606643666 	(obj:0)
STE(3,34)                            4703.79733051661 	(obj:0)
STE(3,35)                            5700.56333384996 	(obj:0)
STE(3,36)                            6613.12666769995 	(obj:0)
STE(3,37)                            5616.36066436674 	(obj:0)
STE(3,38)                            6613.12666769995 	(obj:0)
STE(3,39)                            7525.69000154993 	(obj:0)
STE(4,40)                           -1382.86134384998 	(obj:0)
STE(4,41)                           -386.095340516686 	(obj:0)
STE(4,42)                            831.356862816692 	(obj:0)
STE(4,43)                           -386.095340516626 	(obj:0)
STE(4,44)                            610.670662816664 	(obj:0)
STE(4,45)                            1828.12286615004 	(obj:0)
STE(4,46)                            526.467993333361 	(obj:0)
STE(4,47)                            1523.23399666665 	(obj:0)
STE(4,48)                            2740.68620000003 	(obj:0)
STE(4,49)                           -386.095340516627 	(obj:0)
STE(4,50)                            610.670662816664 	(obj:0)
STE(4,51)                            1828.12286615011 	(obj:0)
STE(4,52)                            610.670662816723 	(obj:0)
STE(4,53)                            1607.43666615001 	(obj:0)
STE(4,54)                            2824.88886948339 	(obj:0)
STE(4,55)                            1523.23399666671 	(obj:0)
STE(4,56)                                        2520 	(obj:0)
STE(4,57)                            3737.45220333338 	(obj:0)
STE(4,58)                             526.46799333336 	(obj:0)
STE(4,59)                            1523.23399666665 	(obj:0)
STE(4,60)                            2740.68620000004 	(obj:0)
STE(4,61)                            1523.23399666665 	(obj:0)
STE(4,62)                            2519.99999999994 	(obj:0)
STE(4,63)                            3737.45220333333 	(obj:0)
STE(4,64)                             2435.7973305167 	(obj:0)
STE(4,65)                            3432.56333384999 	(obj:0)
STE(4,66)                            4650.01553718337 	(obj:0)
STE(4,67)                           -386.095340516485 	(obj:0)
STE(4,68)                            610.670662816805 	(obj:0)
STE(4,69)                            1828.12286615018 	(obj:0)
STE(4,70)                            610.670662816696 	(obj:0)
STE(4,71)                            1607.43666614999 	(obj:0)
STE(4,72)                            2824.88886948336 	(obj:0)
STE(4,73)                            1523.23399666674 	(obj:0)
STE(4,74)                            2520.00000000003 	(obj:0)
STE(4,75)                            3737.45220333341 	(obj:0)
STE(4,76)                              610.6706628168 	(obj:0)
STE(4,77)                            1607.43666615009 	(obj:0)
STE(4,78)                            2824.88886948355 	(obj:0)
STE(4,79)                            1607.43666615011 	(obj:0)
STE(4,80)                             2604.2026694834 	(obj:0)
STE(4,81)                            3821.65487281677 	(obj:0)
STE(4,82)                            2520.00000000009 	(obj:0)
STE(4,83)                            3516.76600333338 	(obj:0)
STE(4,84)                            4734.21820666676 	(obj:0)
STE(4,85)                            1523.23399666677 	(obj:0)
STE(4,86)                            2520.00000000006 	(obj:0)
STE(4,87)                            3737.45220333344 	(obj:0)
STE(4,88)                            2520.00000000009 	(obj:0)
STE(4,89)                            3516.76600333338 	(obj:0)
STE(4,90)                            4734.21820666676 	(obj:0)
STE(4,91)                            3432.56333385008 	(obj:0)
STE(4,92)                            4429.32933718337 	(obj:0)
STE(4,93)                            5646.78154051675 	(obj:0)
STE(4,94)                            526.467993333489 	(obj:0)
STE(4,95)                            1523.23399666678 	(obj:0)
STE(4,96)                            2740.68620000017 	(obj:0)
STE(4,97)                            1523.23399666665 	(obj:0)
STE(4,98)                            2519.99999999994 	(obj:0)
STE(4,99)                            3737.45220333333 	(obj:0)
STE(4,100)                            2435.7973305167 	(obj:0)
STE(4,101)                           3432.56333384999 	(obj:0)
STE(4,102)                           4650.01553718343 	(obj:0)
STE(4,103)                           1523.23399666671 	(obj:0)
STE(4,104)                                       2520 	(obj:0)
STE(4,105)                           3737.45220333338 	(obj:0)
STE(4,106)                                       2520 	(obj:0)
STE(4,107)                           3516.76600333336 	(obj:0)
STE(4,108)                           4734.21820666673 	(obj:0)
STE(4,109)                           3432.56333385005 	(obj:0)
STE(4,110)                           4429.32933718334 	(obj:0)
STE(4,111)                           5646.78154051672 	(obj:0)
STE(4,112)                           2435.79733051684 	(obj:0)
STE(4,113)                           3432.56333385013 	(obj:0)
STE(4,114)                           4650.01553718351 	(obj:0)
STE(4,115)                           3432.56333385005 	(obj:0)
STE(4,116)                           4429.32933718334 	(obj:0)
STE(4,117)                           5646.78154051672 	(obj:0)
STE(4,118)                           4345.12666770004 	(obj:0)
STE(4,119)                           5341.89267103333 	(obj:0)
STE(4,120)                           6559.34487436671 	(obj:0)
y1(4,100)                            2408.90700046491 	(obj:0)
y1(4,101)                            1511.81759746494 	(obj:0)
y1(4,102)                            416.110614464853 	(obj:0)
y1(4,103)                            2408.90700046491 	(obj:0)
y1(4,104)                            1511.81759746494 	(obj:0)
y1(4,105)                            416.110614464904 	(obj:0)
y1(4,106)                            2408.90700046496 	(obj:0)
y1(4,107)                            1511.81759746494 	(obj:0)
y1(4,108)                            416.110614464904 	(obj:0)
y1(4,109)                            2408.90700046491 	(obj:0)
y1(4,110)                            1511.81759746494 	(obj:0)
y1(4,111)                            416.110614464904 	(obj:0)
y1(4,112)                            2408.90700046491 	(obj:0)
y1(4,113)                            1511.81759746494 	(obj:0)
y1(4,114)                            416.110614464904 	(obj:0)
y1(4,115)                            2408.90700046491 	(obj:0)
y1(4,116)                            1511.81759746494 	(obj:0)
y1(4,117)                            416.110614464904 	(obj:0)
y1(4,118)                            2408.90700046491 	(obj:0)
y1(4,119)                            1511.81759746494 	(obj:0)
y1(4,120)                            416.110614464904 	(obj:0)
WB(3)                                 3399.3204933139 	(obj:0)
AVE(3)                                3399.3204933139 	(obj:0)
AVE(4)                               3353.21046544222 	(obj:0)
WG(1)                                3134.60043707458 	(obj:10)
WG(4)                                3353.21046544222 	(obj:10)
BG(1)                                 243.24956292542 	(obj:10)
BG(2)                                         3377.85 	(obj:10)
BG(3)                                         3377.85 	(obj:10)
BG(4)                                1567.31055237914 	(obj:10)
AVE(1)                               3134.60043707458 	(obj:0)
WB(2)                                3326.45170866643 	(obj:0)
AVE(2)                               3326.45170866643 	(obj:0)
y1(1,1)                              897.089403000044 	(obj:0)
y1(2,4)                              897.089403000015 	(obj:0)
y1(2,7)                              897.089403000015 	(obj:0)
y1(2,10)                             897.089403000015 	(obj:0)
y1(3,13)                             897.089403000015 	(obj:0)
y1(3,16)                             897.089403000015 	(obj:0)
y1(3,19)                             897.089403000015 	(obj:0)
y1(3,22)                             897.089402999916 	(obj:0)
y1(3,25)                             897.089402999975 	(obj:0)
y1(3,28)                              897.08940299999 	(obj:0)
y1(3,31)                             897.089402999903 	(obj:0)
y1(3,34)                              897.08940300002 	(obj:0)
y1(3,37)                             897.089402999891 	(obj:0)
y1(4,40)                             2408.90700046491 	(obj:0)
y1(4,41)                             1511.81759746494 	(obj:0)
y1(4,42)                             416.110614464904 	(obj:0)
y1(4,43)                             2408.90700046491 	(obj:0)
y1(4,44)                             1511.81759746494 	(obj:0)
y1(4,45)                             416.110614464904 	(obj:0)
y1(4,46)                             2408.90700046491 	(obj:0)
y1(4,47)                             1511.81759746494 	(obj:0)
y1(4,48)                             416.110614464904 	(obj:0)
y1(4,49)                             2408.90700046491 	(obj:0)
y1(4,50)                             1511.81759746494 	(obj:0)
y1(4,51)                             416.110614464844 	(obj:0)
y1(4,52)                             2408.90700046491 	(obj:0)
y1(4,53)                             1511.81759746494 	(obj:0)
y1(4,54)                             416.110614464904 	(obj:0)
y1(4,55)                             2408.90700046491 	(obj:0)
y1(4,56)                             1511.81759746494 	(obj:0)
y1(4,57)                             416.110614464904 	(obj:0)
y1(4,58)                             2408.90700046491 	(obj:0)
y1(4,59)                             1511.81759746494 	(obj:0)
y1(4,60)                             416.110614464896 	(obj:0)
y1(4,61)                             2408.90700046491 	(obj:0)
y1(4,62)                             1511.81759746494 	(obj:0)
y1(4,63)                             416.110614464894 	(obj:0)
y1(4,64)                             2408.90700046491 	(obj:0)
y1(4,65)                             1511.81759746494 	(obj:0)
y1(4,66)                             416.110614464904 	(obj:0)
y1(4,67)                             2408.90700046491 	(obj:0)
y1(4,68)                             1511.81759746494 	(obj:0)
y1(4,69)                             416.110614464904 	(obj:0)
y1(4,70)                             2408.90700046491 	(obj:0)
y1(4,71)                             1511.81759746494 	(obj:0)
y1(4,72)                             416.110614464904 	(obj:0)
y1(4,73)                             2408.90700046491 	(obj:0)
y1(4,74)                             1511.81759746494 	(obj:0)
y1(4,75)                             416.110614464904 	(obj:0)
y1(4,76)                             2408.90700046491 	(obj:0)
y1(4,77)                             1511.81759746494 	(obj:0)
y1(4,78)                             416.110614464829 	(obj:0)
y1(4,79)                             2408.90700046491 	(obj:0)
y1(4,80)                             1511.81759746494 	(obj:0)
y1(4,81)                             416.110614464904 	(obj:0)
y1(4,82)                             2408.90700046491 	(obj:0)
y1(4,83)                             1511.81759746494 	(obj:0)
y1(4,84)                             416.110614464904 	(obj:0)
y1(4,85)                             2408.90700046491 	(obj:0)
y1(4,86)                             1511.81759746494 	(obj:0)
y1(4,87)                             416.110614464904 	(obj:0)
y1(4,88)                             2408.90700046491 	(obj:0)
y1(4,89)                             1511.81759746494 	(obj:0)
y1(4,90)                             416.110614464904 	(obj:0)
y1(4,91)                             2408.90700046491 	(obj:0)
y1(4,92)                             1511.81759746494 	(obj:0)
y1(4,93)                             416.110614464904 	(obj:0)
y1(4,94)                             2408.90700046491 	(obj:0)
y1(4,95)                             1511.81759746494 	(obj:0)
y1(4,96)                             416.110614464896 	(obj:0)
y1(4,97)                             2408.90700046491 	(obj:0)
y1(4,98)                             1511.81759746494 	(obj:0)
y1(4,99)                             416.110614464894 	(obj:0)
y2(1,3)                              960.592982999959 	(obj:0)
y2(2,6)                              960.592982999986 	(obj:0)
y2(2,9)                              960.592982999986 	(obj:0)
y2(2,12)                             960.592982999986 	(obj:0)
y2(3,15)                             960.592982999986 	(obj:0)
y2(3,18)                             960.592982999987 	(obj:0)
y2(3,21)                             960.592982999986 	(obj:0)
y2(3,24)                             960.592982999986 	(obj:0)
y2(3,27)                             960.592982999986 	(obj:0)
y2(3,30)                             960.592982999986 	(obj:0)
y2(3,33)                             960.592982999986 	(obj:0)
y2(3,36)                             960.592982999986 	(obj:0)
y2(3,39)                             960.592982999986 	(obj:0)
